\* Food_Choice_Problem *\
Maximize
Total_calories_of_the_diet: 198 _1 + 375 _10 + 498 _11 + 522 _12 + 424 _2
 + 440 _3 + 321 _4 + 161 _5 + 240 _6 + 213 _7 + 444 _8 + 489 _9
Subject To
CostMaximum: 30 _1 + 100 _10 + 150 _11 + 250 _12 + 50 _2 + 80 _3 + 120 _4
 + 80 _5 + 120 _6 + 170 _7 + 200 _8 + 60 _9 <= 458
CostMinimum: 30 _1 + 100 _10 + 150 _11 + 250 _12 + 50 _2 + 80 _3 + 120 _4
 + 80 _5 + 120 _6 + 170 _7 + 200 _8 + 60 _9 >= 1
Binaries
_1
_10
_11
_12
_2
_3
_4
_5
_6
_7
_8
_9
End
